============================[ Problem Statistics ]=============================|                                                                             ||  Number of variables:          4242                                         ||  Number of clauses:            9912                                         ||  Parse time:                   0.32 s                                       ||                                                                             |============================[ Search Statistics ]==============================| Conflicts |          ORIGINAL         |          LEARNT          | Progress ||           |    Vars  Clauses Literals |    Limit  Clauses Lit/Cl |          |===============================================================================|       100 |    1591     6117   479548 |     2242      100     53 | 62.501 % |===============================================================================restarts              : 2conflicts             : 180            (370 /sec)decisions             : 352            (0.00 % random) (724 /sec)propagations          : 10025          (20628 /sec)conflict literals     : 12325          (95.24 % deleted)CPU time              : 0.486 sSATISFIABLE